34 34
21
3 3 28 11
3 4 31 30
3 5 31 25
3 6 24 28
3 7 31 18
3 8 31 10
3 9 15 25
3 10 31 0
3 11 28 0
3 12 18 22
3 13 21 21
3 14 24 14
3 21 21 0
3 22 18 0
3 25 15 0
3 34 12 0
4 4 27 30
4 5 27 25
4 11 27 14
4 14 24 0
12 34 0 0
